NAME:  test1
TYPE: AGTSP
COMMENT: gtsp tours
DIMENSION:  65
GTSP_SETS: 17
EDGE_WEIGHT_TYPE: EXPLICIT
EDGE_WEIGHT_FORMAT: FULL_MATRIX 
EDGE_WEIGHT_SECTION
999999	0	999999	999999	37246	37246	37246	37238	37240	37240	37240	37232	37261	37261	999999	999999	37273	37273	999999	999999	37253	37253	37253	37245	37242	37242	37242	37234	37257	37257	37257	37249	37275	37275	999999	999999	37264	37264	999999	999999	37229	37229	37221	999999	37282	37282	999999	999999	37259	37259	37259	37251	37234	37234	37226	999999	37261	37261	999999	999999	37239	37239	37239	37231	0
999999	999999	0	999999	37246	37246	37246	999999	37240	37240	37240	999999	37261	37261	37261	999999	37273	37273	37273	999999	37253	37253	37253	999999	37242	37242	37242	999999	37257	37257	37257	999999	37275	37275	37275	999999	37264	37264	37264	999999	37229	37229	37229	37221	37282	37282	37282	999999	37259	37259	37259	999999	37234	37234	37234	37226	37261	37261	37261	999999	37239	37239	37239	999999	0
999999	999999	999999	0	37246	37246	37246	37246	37240	37240	37240	37240	37261	37261	37261	37261	37273	37273	37273	37273	37253	37253	37253	37253	37242	37242	37242	37242	37257	37257	37257	37257	37275	37275	37275	37275	37264	37264	37264	37264	37229	37229	37229	37229	37282	37282	37282	37282	37259	37259	37259	37259	37234	37234	37234	37234	37261	37261	37261	37261	37239	37239	37239	37239	0
0	999999	999999	999999	37246	37246	37238	999999	37240	37240	37232	999999	37261	37261	37261	37253	37273	37273	37273	37265	37253	37253	37245	999999	37242	37242	37234	999999	37257	37257	37249	999999	37275	37275	37275	37267	37264	37264	37264	37256	37229	37221	999999	999999	37282	999999	999999	999999	37259	37259	37251	999999	37234	37226	999999	999999	37261	37261	37261	37253	37239	37239	37231	999999	0
37246	37246	37246	37238	999999	0	999999	999999	37246	37246	37246	37238	37242	37242	37242	37234	37245	37245	37245	37237	37229	37229	37221	999999	37240	37240	37240	37232	37241	37241	37241	37233	37250	37250	37250	37242	37239	37239	37239	37231	37236	37236	37228	999999	37257	37257	37257	37249	37241	37241	37241	37233	37241	37241	37241	37233	37236	37236	37228	999999	37226	37226	37218	999999	0
37246	37246	37246	999999	999999	999999	0	999999	37246	37246	37246	999999	37242	37242	37242	999999	37245	37245	37245	999999	37229	37229	37229	37221	37240	37240	37240	999999	37241	37241	37241	999999	37250	37250	37250	999999	37239	37239	37239	999999	37236	37236	37236	37228	37257	37257	37257	999999	37241	37241	37241	999999	37241	37241	37241	999999	37236	37236	37236	37228	37226	37226	37226	37218	0
37246	37246	37246	37246	999999	999999	999999	0	37246	37246	37246	37246	37242	37242	37242	37242	37245	37245	37245	37245	37229	37229	37229	37229	37240	37240	37240	37240	37241	37241	37241	37241	37250	37250	37250	37250	37239	37239	37239	37239	37236	37236	37236	37236	37257	37257	37257	37257	37241	37241	37241	37241	37241	37241	37241	37241	37236	37236	37236	37236	37226	37226	37226	37226	0
37246	37246	37238	999999	0	999999	999999	999999	37246	37246	37238	999999	37242	37242	37234	999999	37245	37245	37237	999999	37229	37221	999999	999999	37240	37240	37232	999999	37241	37241	37233	999999	37250	37250	37242	999999	37239	37239	37231	999999	37236	37228	999999	999999	37257	37257	37249	999999	37241	37241	37233	999999	37241	37241	37233	999999	37236	37228	999999	999999	37226	37218	999999	999999	0
37240	37240	37240	37232	37246	37246	37246	37238	999999	0	999999	999999	37245	37245	37245	37237	37266	37266	999999	999999	37244	37244	37244	37236	37224	37224	37216	999999	37268	37268	999999	999999	37262	37262	999999	999999	37268	37268	999999	999999	37233	37233	37225	999999	37268	37268	999999	999999	37268	37268	999999	999999	37252	37252	37252	37244	37265	37265	999999	999999	37245	37245	37245	37237	0
37240	37240	37240	999999	37246	37246	37246	999999	999999	999999	0	999999	37245	37245	37245	999999	37266	37266	37266	999999	37244	37244	37244	999999	37224	37224	37224	37216	37268	37268	37268	999999	37262	37262	37262	999999	37268	37268	37268	999999	37233	37233	37233	37225	37268	37268	37268	999999	37268	37268	37268	999999	37252	37252	37252	999999	37265	37265	37265	999999	37245	37245	37245	999999	0
37240	37240	37240	37240	37246	37246	37246	37246	999999	999999	999999	0	37245	37245	37245	37245	37266	37266	37266	37266	37244	37244	37244	37244	37224	37224	37224	37224	37268	37268	37268	37268	37262	37262	37262	37262	37268	37268	37268	37268	37233	37233	37233	37233	37268	37268	37268	37268	37268	37268	37268	37268	37252	37252	37252	37252	37265	37265	37265	37265	37245	37245	37245	37245	0
37240	37240	37232	999999	37246	37246	37238	999999	0	999999	999999	999999	37245	37245	37237	999999	37266	37266	37266	37258	37244	37244	37236	999999	37224	37216	999999	999999	37268	37268	37268	37260	37262	37262	37262	37254	37268	37268	37268	37260	37233	37225	999999	999999	37268	37268	37268	37260	37268	37268	37268	37260	37252	37252	37244	999999	37265	37265	37265	37257	37245	37245	37237	999999	0
37261	37261	999999	999999	37242	37242	37242	37234	37245	37245	37245	37237	999999	0	999999	999999	37243	37243	37243	37235	37230	37230	37222	999999	37238	37238	37230	999999	37264	37264	999999	999999	37235	37235	37227	999999	37257	37257	37257	37249	37249	37249	37249	37241	37240	37240	37240	37232	37263	37263	999999	999999	37263	37263	999999	999999	37254	37254	37254	37246	37249	37249	37249	37241	0
37261	37261	37261	999999	37242	37242	37242	999999	37245	37245	37245	999999	999999	999999	0	999999	37243	37243	37243	999999	37230	37230	37230	37222	37238	37238	37238	37230	37264	37264	37264	999999	37235	37235	37235	37227	37257	37257	37257	999999	37249	37249	37249	999999	37240	37240	37240	999999	37263	37263	37263	999999	37263	37263	37263	999999	37254	37254	37254	999999	37249	37249	37249	999999	0
37261	37261	37261	37261	37242	37242	37242	37242	37245	37245	37245	37245	999999	999999	999999	0	37243	37243	37243	37243	37230	37230	37230	37230	37238	37238	37238	37238	37264	37264	37264	37264	37235	37235	37235	37235	37257	37257	37257	37257	37249	37249	37249	37249	37240	37240	37240	37240	37263	37263	37263	37263	37263	37263	37263	37263	37254	37254	37254	37254	37249	37249	37249	37249	0
37261	37261	37261	37253	37242	37242	37234	999999	37245	37245	37237	999999	0	999999	999999	999999	37243	37243	37235	999999	37230	37222	999999	999999	37238	37230	999999	999999	37264	37264	37264	37256	37235	37227	999999	999999	37257	37257	37249	999999	37249	37249	37241	999999	37240	37240	37232	999999	37263	37263	37263	37255	37263	37263	37263	37255	37254	37254	37246	999999	37249	37249	37241	999999	0
37273	37273	999999	999999	37245	37245	37245	37237	37266	37266	999999	999999	37243	37243	37243	37235	999999	0	999999	999999	37239	37239	37239	37231	37259	37259	37259	37251	37255	37255	37255	37247	37231	37231	37223	999999	37242	37242	37242	37234	37263	37263	999999	999999	37236	37236	37228	999999	37253	37253	37253	37245	37268	37268	999999	999999	37241	37241	37241	37233	37253	37253	37253	37245	0
37273	37273	37273	999999	37245	37245	37245	999999	37266	37266	37266	999999	37243	37243	37243	999999	999999	999999	0	999999	37239	37239	37239	999999	37259	37259	37259	999999	37255	37255	37255	999999	37231	37231	37231	37223	37242	37242	37242	999999	37263	37263	37263	999999	37236	37236	37236	37228	37253	37253	37253	999999	37268	37268	37268	999999	37241	37241	37241	999999	37253	37253	37253	999999	0
37273	37273	37273	37273	37245	37245	37245	37245	37266	37266	37266	37266	37243	37243	37243	37243	999999	999999	999999	0	37239	37239	37239	37239	37259	37259	37259	37259	37255	37255	37255	37255	37231	37231	37231	37231	37242	37242	37242	37242	37263	37263	37263	37263	37236	37236	37236	37236	37253	37253	37253	37253	37268	37268	37268	37268	37241	37241	37241	37241	37253	37253	37253	37253	0
37273	37273	37273	37265	37245	37245	37237	999999	37266	37266	37266	37258	37243	37243	37235	999999	0	999999	999999	999999	37239	37239	37231	999999	37259	37259	37251	999999	37255	37255	37247	999999	37231	37223	999999	999999	37242	37242	37234	999999	37263	37263	37263	37255	37236	37228	999999	999999	37253	37253	37245	999999	37268	37268	37268	37260	37241	37241	37233	999999	37253	37253	37245	999999	0
37253	37253	37253	37245	37229	37229	37221	999999	37244	37244	37244	37236	37230	37230	37222	999999	37239	37239	37239	37231	999999	0	999999	999999	37237	37237	37229	999999	37251	37251	37251	37243	37240	37240	37240	37232	37245	37245	37245	37237	37242	37242	37242	37234	37247	37247	37247	37239	37250	37250	37250	37242	37252	37252	37252	37244	37242	37242	37242	37234	37237	37237	37229	999999	0
37253	37253	37253	999999	37229	37229	37229	37221	37244	37244	37244	999999	37230	37230	37230	37222	37239	37239	37239	999999	999999	999999	0	999999	37237	37237	37237	37229	37251	37251	37251	999999	37240	37240	37240	999999	37245	37245	37245	999999	37242	37242	37242	999999	37247	37247	37247	999999	37250	37250	37250	999999	37252	37252	37252	999999	37242	37242	37242	999999	37237	37237	37237	37229	0
37253	37253	37253	37253	37229	37229	37229	37229	37244	37244	37244	37244	37230	37230	37230	37230	37239	37239	37239	37239	999999	999999	999999	0	37237	37237	37237	37237	37251	37251	37251	37251	37240	37240	37240	37240	37245	37245	37245	37245	37242	37242	37242	37242	37247	37247	37247	37247	37250	37250	37250	37250	37252	37252	37252	37252	37242	37242	37242	37242	37237	37237	37237	37237	0
37253	37253	37245	999999	37229	37221	999999	999999	37244	37244	37236	999999	37230	37222	999999	999999	37239	37239	37231	999999	0	999999	999999	999999	37237	37229	999999	999999	37251	37251	37243	999999	37240	37240	37232	999999	37245	37245	37237	999999	37242	37242	37234	999999	37247	37247	37239	999999	37250	37250	37242	999999	37252	37252	37244	999999	37242	37242	37234	999999	37237	37229	999999	999999	0
37242	37242	37242	37234	37240	37240	37240	37232	37224	37224	37216	999999	37238	37238	37230	999999	37259	37259	37259	37251	37237	37237	37229	999999	999999	0	999999	999999	37262	37262	999999	999999	37256	37256	37256	37248	37262	37262	999999	999999	37232	37232	37224	999999	37262	37262	999999	999999	37262	37262	999999	999999	37250	37250	37250	37242	37258	37258	37258	37250	37241	37241	37241	37233	0
37242	37242	37242	999999	37240	37240	37240	999999	37224	37224	37224	37216	37238	37238	37238	37230	37259	37259	37259	999999	37237	37237	37237	37229	999999	999999	0	999999	37262	37262	37262	999999	37256	37256	37256	999999	37262	37262	37262	999999	37232	37232	37232	37224	37262	37262	37262	999999	37262	37262	37262	999999	37250	37250	37250	999999	37258	37258	37258	999999	37241	37241	37241	999999	0
37242	37242	37242	37242	37240	37240	37240	37240	37224	37224	37224	37224	37238	37238	37238	37238	37259	37259	37259	37259	37237	37237	37237	37237	999999	999999	999999	0	37262	37262	37262	37262	37256	37256	37256	37256	37262	37262	37262	37262	37232	37232	37232	37232	37262	37262	37262	37262	37262	37262	37262	37262	37250	37250	37250	37250	37258	37258	37258	37258	37241	37241	37241	37241	0
37242	37242	37234	999999	37240	37240	37232	999999	37224	37216	999999	999999	37238	37230	999999	999999	37259	37259	37251	999999	37237	37229	999999	999999	0	999999	999999	999999	37262	37262	37262	37254	37256	37256	37248	999999	37262	37262	37262	37254	37232	37224	999999	999999	37262	37262	37262	37254	37262	37262	37262	37254	37250	37250	37242	999999	37258	37258	37250	999999	37241	37241	37233	999999	0
37257	37257	37257	37249	37241	37241	37241	37233	37268	37268	999999	999999	37264	37264	999999	999999	37255	37255	37255	37247	37251	37251	37251	37243	37262	37262	999999	999999	999999	0	999999	999999	37266	37266	999999	999999	37231	37231	37223	999999	37253	37253	37253	37245	37273	37273	999999	999999	37219	37219	37211	999999	37242	37242	37242	37234	37231	37231	37223	999999	37239	37239	37239	37231	0
37257	37257	37257	999999	37241	37241	37241	999999	37268	37268	37268	999999	37264	37264	37264	999999	37255	37255	37255	999999	37251	37251	37251	999999	37262	37262	37262	999999	999999	999999	0	999999	37266	37266	37266	999999	37231	37231	37231	37223	37253	37253	37253	999999	37273	37273	37273	999999	37219	37219	37219	37211	37242	37242	37242	999999	37231	37231	37231	37223	37239	37239	37239	999999	0
37257	37257	37257	37257	37241	37241	37241	37241	37268	37268	37268	37268	37264	37264	37264	37264	37255	37255	37255	37255	37251	37251	37251	37251	37262	37262	37262	37262	999999	999999	999999	0	37266	37266	37266	37266	37231	37231	37231	37231	37253	37253	37253	37253	37273	37273	37273	37273	37219	37219	37219	37219	37242	37242	37242	37242	37231	37231	37231	37231	37239	37239	37239	37239	0
37257	37257	37249	999999	37241	37241	37233	999999	37268	37268	37268	37260	37264	37264	37264	37256	37255	37255	37247	999999	37251	37251	37243	999999	37262	37262	37262	37254	0	999999	999999	999999	37266	37266	37266	37258	37231	37223	999999	999999	37253	37253	37245	999999	37273	37273	37273	37265	37219	37211	999999	999999	37242	37242	37234	999999	37231	37223	999999	999999	37239	37239	37231	999999	0
37275	37275	999999	999999	37250	37250	37250	37242	37262	37262	999999	999999	37235	37235	37227	999999	37231	37231	37223	999999	37240	37240	37240	37232	37256	37256	37256	37248	37266	37266	999999	999999	999999	0	999999	999999	37255	37255	37255	37247	37264	37264	999999	999999	37224	37224	37216	999999	37265	37265	999999	999999	37274	37274	999999	999999	37253	37253	37253	37245	37258	37258	37258	37250	0
37275	37275	37275	999999	37250	37250	37250	999999	37262	37262	37262	999999	37235	37235	37235	37227	37231	37231	37231	37223	37240	37240	37240	999999	37256	37256	37256	999999	37266	37266	37266	999999	999999	999999	0	999999	37255	37255	37255	999999	37264	37264	37264	999999	37224	37224	37224	37216	37265	37265	37265	999999	37274	37274	37274	999999	37253	37253	37253	999999	37258	37258	37258	999999	0
37275	37275	37275	37275	37250	37250	37250	37250	37262	37262	37262	37262	37235	37235	37235	37235	37231	37231	37231	37231	37240	37240	37240	37240	37256	37256	37256	37256	37266	37266	37266	37266	999999	999999	999999	0	37255	37255	37255	37255	37264	37264	37264	37264	37224	37224	37224	37224	37265	37265	37265	37265	37274	37274	37274	37274	37253	37253	37253	37253	37258	37258	37258	37258	0
37275	37275	37275	37267	37250	37250	37242	999999	37262	37262	37262	37254	37235	37227	999999	999999	37231	37223	999999	999999	37240	37240	37232	999999	37256	37256	37248	999999	37266	37266	37266	37258	0	999999	999999	999999	37255	37255	37247	999999	37264	37264	37264	37256	37224	37216	999999	999999	37265	37265	37265	37257	37274	37274	37274	37266	37253	37253	37245	999999	37258	37258	37250	999999	0
37264	37264	999999	999999	37239	37239	37239	37231	37268	37268	999999	999999	37257	37257	37257	37249	37242	37242	37242	37234	37245	37245	37245	37237	37262	37262	999999	999999	37231	37231	37223	999999	37255	37255	37255	37247	999999	0	999999	999999	37257	37257	37257	37249	37261	37261	999999	999999	37229	37229	37221	999999	37252	37252	37252	37244	37221	37221	37213	999999	37243	37243	37243	37235	0
37264	37264	37264	999999	37239	37239	37239	999999	37268	37268	37268	999999	37257	37257	37257	999999	37242	37242	37242	999999	37245	37245	37245	999999	37262	37262	37262	999999	37231	37231	37231	37223	37255	37255	37255	999999	999999	999999	0	999999	37257	37257	37257	999999	37261	37261	37261	999999	37229	37229	37229	37221	37252	37252	37252	999999	37221	37221	37221	37213	37243	37243	37243	999999	0
37264	37264	37264	37264	37239	37239	37239	37239	37268	37268	37268	37268	37257	37257	37257	37257	37242	37242	37242	37242	37245	37245	37245	37245	37262	37262	37262	37262	37231	37231	37231	37231	37255	37255	37255	37255	999999	999999	999999	0	37257	37257	37257	37257	37261	37261	37261	37261	37229	37229	37229	37229	37252	37252	37252	37252	37221	37221	37221	37221	37243	37243	37243	37243	0
37264	37264	37264	37256	37239	37239	37231	999999	37268	37268	37268	37260	37257	37257	37249	999999	37242	37242	37234	999999	37245	37245	37237	999999	37262	37262	37262	37254	37231	37223	999999	999999	37255	37255	37247	999999	0	999999	999999	999999	37257	37257	37249	999999	37261	37261	37261	37253	37229	37221	999999	999999	37252	37252	37244	999999	37221	37213	999999	999999	37243	37243	37235	999999	0
37229	37229	37221	999999	37236	37236	37228	999999	37233	37233	37225	999999	37249	37249	37249	37241	37263	37263	999999	999999	37242	37242	37242	37234	37232	37232	37224	999999	37253	37253	37253	37245	37264	37264	999999	999999	37257	37257	37257	37249	999999	0	999999	999999	37270	37270	999999	999999	37254	37254	37254	37246	37236	37236	37228	999999	37253	37253	37253	37245	37232	37232	37224	999999	0
37229	37229	37229	37221	37236	37236	37236	37228	37233	37233	37233	37225	37249	37249	37249	999999	37263	37263	37263	999999	37242	37242	37242	999999	37232	37232	37232	37224	37253	37253	37253	999999	37264	37264	37264	999999	37257	37257	37257	999999	999999	999999	0	999999	37270	37270	37270	999999	37254	37254	37254	999999	37236	37236	37236	37228	37253	37253	37253	999999	37232	37232	37232	37224	0
37229	37229	37229	37229	37236	37236	37236	37236	37233	37233	37233	37233	37249	37249	37249	37249	37263	37263	37263	37263	37242	37242	37242	37242	37232	37232	37232	37232	37253	37253	37253	37253	37264	37264	37264	37264	37257	37257	37257	37257	999999	999999	999999	0	37270	37270	37270	37270	37254	37254	37254	37254	37236	37236	37236	37236	37253	37253	37253	37253	37232	37232	37232	37232	0
37229	37221	999999	999999	37236	37228	999999	999999	37233	37225	999999	999999	37249	37249	37241	999999	37263	37263	37263	37255	37242	37242	37234	999999	37232	37224	999999	999999	37253	37253	37245	999999	37264	37264	37264	37256	37257	37257	37249	999999	0	999999	999999	999999	37270	37270	37270	37262	37254	37254	37246	999999	37236	37228	999999	999999	37253	37253	37245	999999	37232	37224	999999	999999	0
37282	37282	999999	999999	37257	37257	37257	37249	37268	37268	999999	999999	37240	37240	37240	37232	37236	37236	37228	999999	37247	37247	37247	37239	37262	37262	999999	999999	37273	37273	999999	999999	37224	37224	37216	999999	37261	37261	999999	999999	37270	37270	999999	999999	999999	0	999999	999999	37271	37271	999999	999999	37281	37281	999999	999999	37260	37260	37260	37252	37265	37265	999999	999999	0
37282	37282	37282	999999	37257	37257	37257	999999	37268	37268	37268	999999	37240	37240	37240	999999	37236	37236	37236	37228	37247	37247	37247	999999	37262	37262	37262	999999	37273	37273	37273	999999	37224	37224	37224	37216	37261	37261	37261	999999	37270	37270	37270	999999	999999	999999	0	999999	37271	37271	37271	999999	37281	37281	37281	999999	37260	37260	37260	999999	37265	37265	37265	999999	0
37282	37282	37282	37282	37257	37257	37257	37257	37268	37268	37268	37268	37240	37240	37240	37240	37236	37236	37236	37236	37247	37247	37247	37247	37262	37262	37262	37262	37273	37273	37273	37273	37224	37224	37224	37224	37261	37261	37261	37261	37270	37270	37270	37270	999999	999999	999999	0	37271	37271	37271	37271	37281	37281	37281	37281	37260	37260	37260	37260	37265	37265	37265	37265	0
37282	999999	999999	999999	37257	37257	37249	999999	37268	37268	37268	37260	37240	37240	37232	999999	37236	37228	999999	999999	37247	37247	37239	999999	37262	37262	37262	37254	37273	37273	37273	37265	37224	37216	999999	999999	37261	37261	37261	37253	37270	37270	37270	37262	0	999999	999999	999999	37271	37271	37271	37263	37281	999999	999999	999999	37260	37260	37252	999999	37265	37265	37265	37257	0
37259	37259	37259	37251	37241	37241	37241	37233	37268	37268	999999	999999	37263	37263	999999	999999	37253	37253	37253	37245	37250	37250	37250	37242	37262	37262	999999	999999	37219	37219	37211	999999	37265	37265	999999	999999	37229	37229	37221	999999	37254	37254	37254	37246	37271	37271	999999	999999	999999	0	999999	999999	37244	37244	37244	37236	37229	37229	37221	999999	37240	37240	37240	37232	0
37259	37259	37259	999999	37241	37241	37241	999999	37268	37268	37268	999999	37263	37263	37263	999999	37253	37253	37253	999999	37250	37250	37250	999999	37262	37262	37262	999999	37219	37219	37219	37211	37265	37265	37265	999999	37229	37229	37229	37221	37254	37254	37254	999999	37271	37271	37271	999999	999999	999999	0	999999	37244	37244	37244	999999	37229	37229	37229	37221	37240	37240	37240	999999	0
37259	37259	37259	37259	37241	37241	37241	37241	37268	37268	37268	37268	37263	37263	37263	37263	37253	37253	37253	37253	37250	37250	37250	37250	37262	37262	37262	37262	37219	37219	37219	37219	37265	37265	37265	37265	37229	37229	37229	37229	37254	37254	37254	37254	37271	37271	37271	37271	999999	999999	999999	0	37244	37244	37244	37244	37229	37229	37229	37229	37240	37240	37240	37240	0
37259	37259	37251	999999	37241	37241	37233	999999	37268	37268	37268	37260	37263	37263	37263	37255	37253	37253	37245	999999	37250	37250	37242	999999	37262	37262	37262	37254	37219	37211	999999	999999	37265	37265	37265	37257	37229	37221	999999	999999	37254	37254	37246	999999	37271	37271	37271	37263	0	999999	999999	999999	37244	37244	37236	999999	37229	37221	999999	999999	37240	37240	37232	999999	0
37234	37234	37226	999999	37241	37241	37241	37233	37252	37252	37252	37244	37263	37263	999999	999999	37268	37268	999999	999999	37252	37252	37252	37244	37250	37250	37250	37242	37242	37242	37242	37234	37274	37274	999999	999999	37252	37252	37252	37244	37236	37236	37228	999999	37281	37281	999999	999999	37244	37244	37244	37236	999999	0	999999	999999	37249	37249	37249	37241	37233	37233	37225	999999	0
37234	37234	37234	37226	37241	37241	37241	999999	37252	37252	37252	999999	37263	37263	37263	999999	37268	37268	37268	999999	37252	37252	37252	999999	37250	37250	37250	999999	37242	37242	37242	999999	37274	37274	37274	999999	37252	37252	37252	999999	37236	37236	37236	37228	37281	37281	37281	999999	37244	37244	37244	999999	999999	999999	0	999999	37249	37249	37249	999999	37233	37233	37233	37225	0
37234	37234	37234	37234	37241	37241	37241	37241	37252	37252	37252	37252	37263	37263	37263	37263	37268	37268	37268	37268	37252	37252	37252	37252	37250	37250	37250	37250	37242	37242	37242	37242	37274	37274	37274	37274	37252	37252	37252	37252	37236	37236	37236	37236	37281	37281	37281	37281	37244	37244	37244	37244	999999	999999	999999	0	37249	37249	37249	37249	37233	37233	37233	37233	0
37234	37226	999999	999999	37241	37241	37233	999999	37252	37252	37244	999999	37263	37263	37263	37255	37268	37268	37268	37260	37252	37252	37244	999999	37250	37250	37242	999999	37242	37242	37234	999999	37274	37274	37274	37266	37252	37252	37244	999999	37236	37228	999999	999999	37281	999999	999999	999999	37244	37244	37236	999999	0	999999	999999	999999	37249	37249	37241	999999	37233	37225	999999	999999	0
37261	37261	999999	999999	37236	37236	37228	999999	37265	37265	999999	999999	37254	37254	37254	37246	37241	37241	37241	37233	37242	37242	37242	37234	37258	37258	37258	37250	37231	37231	37223	999999	37253	37253	37253	37245	37221	37221	37213	999999	37253	37253	37253	37245	37260	37260	37260	37252	37229	37229	37221	999999	37249	37249	37249	37241	999999	0	999999	999999	37239	37239	37239	37231	0
37261	37261	37261	999999	37236	37236	37236	37228	37265	37265	37265	999999	37254	37254	37254	999999	37241	37241	37241	999999	37242	37242	37242	999999	37258	37258	37258	999999	37231	37231	37231	37223	37253	37253	37253	999999	37221	37221	37221	37213	37253	37253	37253	999999	37260	37260	37260	999999	37229	37229	37229	37221	37249	37249	37249	999999	999999	999999	0	999999	37239	37239	37239	999999	0
37261	37261	37261	37261	37236	37236	37236	37236	37265	37265	37265	37265	37254	37254	37254	37254	37241	37241	37241	37241	37242	37242	37242	37242	37258	37258	37258	37258	37231	37231	37231	37231	37253	37253	37253	37253	37221	37221	37221	37221	37253	37253	37253	37253	37260	37260	37260	37260	37229	37229	37229	37229	37249	37249	37249	37249	999999	999999	999999	0	37239	37239	37239	37239	0
37261	37261	37261	37253	37236	37228	999999	999999	37265	37265	37265	37257	37254	37254	37246	999999	37241	37241	37233	999999	37242	37242	37234	999999	37258	37258	37250	999999	37231	37223	999999	999999	37253	37253	37245	999999	37221	37213	999999	999999	37253	37253	37245	999999	37260	37260	37252	999999	37229	37221	999999	999999	37249	37249	37241	999999	0	999999	999999	999999	37239	37239	37231	999999	0
37239	37239	37239	37231	37226	37226	37218	999999	37245	37245	37245	37237	37249	37249	37249	37241	37253	37253	37253	37245	37237	37237	37229	999999	37241	37241	37241	37233	37239	37239	37239	37231	37258	37258	37258	37250	37243	37243	37243	37235	37232	37232	37224	999999	37265	37265	999999	999999	37240	37240	37240	37232	37233	37233	37225	999999	37239	37239	37239	37231	999999	0	999999	999999	0
37239	37239	37239	999999	37226	37226	37226	37218	37245	37245	37245	999999	37249	37249	37249	999999	37253	37253	37253	999999	37237	37237	37237	37229	37241	37241	37241	999999	37239	37239	37239	999999	37258	37258	37258	999999	37243	37243	37243	999999	37232	37232	37232	37224	37265	37265	37265	999999	37240	37240	37240	999999	37233	37233	37233	37225	37239	37239	37239	999999	999999	999999	0	999999	0
37239	37239	37239	37239	37226	37226	37226	37226	37245	37245	37245	37245	37249	37249	37249	37249	37253	37253	37253	37253	37237	37237	37237	37237	37241	37241	37241	37241	37239	37239	37239	37239	37258	37258	37258	37258	37243	37243	37243	37243	37232	37232	37232	37232	37265	37265	37265	37265	37240	37240	37240	37240	37233	37233	37233	37233	37239	37239	37239	37239	999999	999999	999999	0	0
37239	37239	37231	999999	37226	37218	999999	999999	37245	37245	37237	999999	37249	37249	37241	999999	37253	37253	37245	999999	37237	37229	999999	999999	37241	37241	37233	999999	37239	37239	37231	999999	37258	37258	37250	999999	37243	37243	37235	999999	37232	37224	999999	999999	37265	37265	37265	37257	37240	37240	37232	999999	37233	37225	999999	999999	37239	37239	37231	999999	0	999999	999999	999999	0
37209	999999	999999	999999	37209	999999	999999	999999	37209	999999	999999	999999	37209	999999	999999	999999	37209	999999	999999	999999	37209	999999	999999	999999	37209	999999	999999	999999	37209	999999	999999	999999	37209	999999	999999	999999	37209	999999	999999	999999	37209	999999	999999	999999	37209	999999	999999	999999	37209	999999	999999	999999	37209	999999	999999	999999	37209	999999	999999	999999	37209	999999	999999	999999	999999
GTSP_SET_SECTION:
1 1 2 3 4 -1
2 5 6 7 8 -1
3 9 10 11 12 -1
4 13 14 15 16 -1
5 17 18 19 20 -1
6 21 22 23 24 -1
7 25 26 27 28 -1
8 29 30 31 32 -1
9 33 34 35 36 -1
10 37 38 39 40 -1
11 41 42 43 44 -1
12 45 46 47 48 -1
13 49 50 51 52 -1
14 53 54 55 56 -1
15 57 58 59 60 -1
16 61 62 63 64 -1
17 65 -1
EOF